c User generated cnf file
p cnf 9 21
2 -1 3 0 
4 -8 6 0 
5 3 -8 0 
3 -9 4 0 
8 9 -4 0 
8 -1 2 0 
6 -7 4 0 
6 8 -8 0 
7 6 -6 0 
6 -2 7 0 
-1 2 8 0 
4 2 -7 0 
7 1 -2 0 
9 -3 3 0 
-2 5 9 0 
1 -4 1 0 
7 -9 9 0 
3 -6 6 0 
-8 5 3 0 
8 -1 1 0 
7 -1 9 0 
